results_rootrelaxation/bin018_060_037.srr.sol
solution status: optimal solution found
objective value:                                    0
_var2704_                          0.0943279530520691 	(obj:0)
_var2717_                           0.144886568445593 	(obj:0)
_var2728_                          0.0207997621138458 	(obj:0)
_var2729_                           0.148533452184971 	(obj:0)
_var2758_                           0.248301522467861 	(obj:0)
_var2764_                          0.0280285009090527 	(obj:0)
_var2766_                         0.00116023003801718 	(obj:0)
_var2773_                           0.319806283773059 	(obj:0)
_var2799_                          0.0206307103454376 	(obj:0)
_var2808_                          0.0218869318711574 	(obj:0)
_var2817_                          0.0472969596957492 	(obj:0)
_var2832_                             0.1317256371749 	(obj:0)
_var2849_                          0.0542648213660551 	(obj:0)
_var2852_                          0.0252518547455115 	(obj:0)
_var2853_                           0.161371707943575 	(obj:0)
_var2857_                           0.022633872082051 	(obj:0)
_var2858_                           0.286710943890121 	(obj:0)
_var2860_                          0.0977771240596308 	(obj:0)
_var2861_                          0.0100304931751668 	(obj:0)
_var2862_                           0.239624507487593 	(obj:0)
_var2877_                          0.0411146755270708 	(obj:0)
_var2883_                          0.0391409397476768 	(obj:0)
_var2884_                           0.052727681219929 	(obj:0)
_var2885_                           0.125972864317729 	(obj:0)
_var2887_                         0.00645432018664771 	(obj:0)
_var2891_                           0.176562792721092 	(obj:0)
_var2892_                          0.0694485715049743 	(obj:0)
_var2897_                           0.109865555628848 	(obj:0)
_var2904_                          0.0793030542313667 	(obj:0)
_var2930_                          0.0704857019238023 	(obj:0)
_var2932_                           0.212223410407624 	(obj:0)
_var2933_                           0.170629621010181 	(obj:0)
_var2937_                          0.0967367438378322 	(obj:0)
_var2938_                          0.0786502792840145 	(obj:0)
_var2939_                           0.266526839773986 	(obj:0)
_var2946_                           0.179101623909688 	(obj:0)
_var2949_                           0.122275550507276 	(obj:0)
_var2952_                           0.245351974991297 	(obj:0)
_var2959_                          0.0820786849236649 	(obj:0)
_var2967_                           0.188333422822027 	(obj:0)
_var2971_                           0.317995966879897 	(obj:0)
_var2974_                           0.168428698701222 	(obj:0)
_var2976_                            0.11751637954907 	(obj:0)
_var2978_                           0.269699729168844 	(obj:0)
_var2979_                           0.012644080341407 	(obj:0)
_var2981_                           0.261074395395137 	(obj:0)
_var2985_                          0.0442248968407302 	(obj:0)
_var2987_                           0.135624754865223 	(obj:0)
_var2989_                          0.0779530702938594 	(obj:0)
_var2990_                           0.225406729529441 	(obj:0)
_var2992_                           0.169913898823205 	(obj:0)
_var2993_                           0.107022810908121 	(obj:0)
_var2995_                           0.239064087896288 	(obj:0)
_var2996_                          0.0941851425779669 	(obj:0)
_var2997_                           0.207284589555788 	(obj:0)
_var2998_                          0.0250230373146389 	(obj:0)
_var2999_                          0.0565037057072117 	(obj:0)
_var3004_                          0.0388555045888104 	(obj:0)
_var3006_                           0.145336938138906 	(obj:0)
_var3007_                            0.12623215077236 	(obj:0)
_var3008_                           0.168102864453609 	(obj:0)
_var3009_                          0.0206934488909157 	(obj:0)
_var3011_                           0.084020429748103 	(obj:0)
_var3012_                         0.000106411142804907 	(obj:0)
_var3014_                           0.192540367071951 	(obj:0)
_var3015_                          0.0394344230806809 	(obj:0)
_var3017_                           0.157640797301073 	(obj:0)
_var3018_                          0.0779993234708305 	(obj:0)
_var3019_                          0.0608409784661231 	(obj:0)
_var3020_                           0.165300816184293 	(obj:0)
_var3022_                           0.114230825663694 	(obj:0)
_var3026_                          0.0424256091472651 	(obj:0)
_var3035_                          0.0865064825223898 	(obj:0)
_var3036_                           0.294959428442397 	(obj:0)
_var3037_                          0.0614656849627993 	(obj:0)
_var3038_                           0.130604365824271 	(obj:0)
_var3041_                          0.0805684130506147 	(obj:0)
_var3043_                            0.25648192270831 	(obj:0)
_var3046_                          0.0596860949991116 	(obj:0)
_var3047_                          0.0919290024986172 	(obj:0)
_var3049_                           0.155805497189888 	(obj:0)
_var3055_                          0.0759517799537731 	(obj:0)
_var3056_                          0.0157339661746023 	(obj:0)
_var3059_                           0.179921624230135 	(obj:0)
_var3060_                           0.186951733550863 	(obj:0)
_var3061_                          0.0623419707301928 	(obj:0)
_var3062_                           0.029737454350784 	(obj:0)
_var3063_                          0.0856408886327681 	(obj:0)
_var3064_                          0.0831698596523754 	(obj:0)
_var3066_                          0.0102512889753289 	(obj:0)
_var3067_                           0.328494778436344 	(obj:0)
_var3068_                           0.101549265349018 	(obj:0)
_var3070_                          0.0292136616102132 	(obj:0)
_var3072_                          0.0617340727396638 	(obj:0)
_var3073_                          0.0435074721649307 	(obj:0)
_var3074_                           0.131241454652643 	(obj:0)
_var3075_                           0.067772879483595 	(obj:0)
_var3077_                           0.118218880635549 	(obj:0)
_var3081_                           0.157577836723541 	(obj:0)
_var3082_                           0.115241526675056 	(obj:0)
_var3083_                          0.0247858345982233 	(obj:0)
_var3085_                           0.273639285597684 	(obj:0)
_var3086_                          0.0570979627717778 	(obj:0)
_var3090_                          0.0639117619697417 	(obj:0)
_var3093_                           0.138436832569318 	(obj:0)
_var3095_                           0.211512124910818 	(obj:0)
_var3097_                           0.110214175556784 	(obj:0)
_var3098_                           0.151662908421483 	(obj:0)
_var3100_                           0.171467668750388 	(obj:0)
_var3105_                           0.293601855818935 	(obj:0)
_var3106_                           0.299749531601549 	(obj:0)
_var3107_                           0.137493817154742 	(obj:0)
_var3108_                          0.0863987812777297 	(obj:0)
_var3109_                           0.187022654726099 	(obj:0)
_var3110_                            0.18187974473685 	(obj:0)
_var3111_                           0.153658181557797 	(obj:0)
_var3112_                         0.00181564199028297 	(obj:0)
_var3113_                          0.0303811982248964 	(obj:0)
_var3114_                          0.0349583443367692 	(obj:0)
_var3117_                         0.00204764528432014 	(obj:0)
_var3118_                          0.0960782366476265 	(obj:0)
_var3120_                           0.175408617355663 	(obj:0)
_var3121_                           0.048164266831711 	(obj:0)
_var3124_                          0.0862647399086147 	(obj:0)
_var3127_                          0.0991002706618081 	(obj:0)
_var3129_                           0.118193051116809 	(obj:0)
_var3130_                           0.179895118508062 	(obj:0)
_var3131_                           0.178743336395473 	(obj:0)
_var3133_                           0.189961488155374 	(obj:0)
_var3135_                          0.0328781735506771 	(obj:0)
_var3136_                          0.0874888524334941 	(obj:0)
_var3137_                          0.0791056518796444 	(obj:0)
_var3138_                           0.121975190490983 	(obj:0)
_var3139_                          0.0360026614374612 	(obj:0)
_var3142_                          0.0884038255456623 	(obj:0)
_var3145_                           0.027549394010118 	(obj:0)
_var3152_                             0.2803111950705 	(obj:0)
_var3153_                          0.0243830762899846 	(obj:0)
_var3154_                          0.0163854659825156 	(obj:0)
_var3155_                          0.0746667147879307 	(obj:0)
_var3156_                           0.124918615039848 	(obj:0)
_var3157_                          0.0830499363752129 	(obj:0)
_var3158_                          0.0988728515004309 	(obj:0)
_var3160_                          0.0464703326639046 	(obj:0)
_var3161_                          0.0641299646470582 	(obj:0)
_var3162_                          0.0241069306759776 	(obj:0)
_var3163_                         0.00599471801582992 	(obj:0)
_var3166_                          0.0216378477300472 	(obj:0)
_var3167_                           0.105839911456977 	(obj:0)
_var3169_                          0.0958683549587924 	(obj:0)
_var3172_                           0.072794963332228 	(obj:0)
